c b=7,c=257
p cnf 22 29
7 -14 0
7 -22 0
-7 14 0
-7 22 0
6 -13 0
6 -21 0
-6 13 0
-6 21 0
5 -12 0
5 -20 0
-5 12 0
-5 20 0
4 -11 0
4 -19 0
-4 11 0
-4 19 0
3 -10 0
3 -18 0
-3 10 0
-3 18 0
2 -9 0
2 -17 0
-2 9 0
-2 17 0
1 -8 0
1 -16 0
-1 8 0
-1 16 0
-15 0
